solution status: optimal solution found
objective value:                     165744.048755084
d11(0,0)                                            1 	(obj:0)
d11(1,1)                                            1 	(obj:0)
d11(1,2)                                            1 	(obj:0)
d11(2,3)                                            1 	(obj:0)
d11(2,4)                                            1 	(obj:0)
d11(2,5)                                            1 	(obj:0)
d11(2,6)                                            1 	(obj:0)
d11(3,7)                                            1 	(obj:0)
d11(3,8)                                            1 	(obj:0)
d11(3,9)                                            1 	(obj:0)
d11(3,11)                                           1 	(obj:0)
d11(3,12)                                           1 	(obj:0)
d11(3,13)                                           1 	(obj:0)
d11(3,14)                                           1 	(obj:0)
d11(4,15)                                           1 	(obj:0)
d11(4,17)                                           1 	(obj:0)
d11(4,19)                                           1 	(obj:0)
d11(4,21)                                           1 	(obj:0)
d11(4,23)                                           1 	(obj:0)
d11(4,25)                                           1 	(obj:0)
d11(4,27)                                           1 	(obj:0)
d11(4,29)                                           1 	(obj:0)
d12(4,16)                                           1 	(obj:0)
d12(4,18)                                           1 	(obj:0)
d12(4,20)                                           1 	(obj:0)
d12(4,22)                                           1 	(obj:0)
d12(4,24)                                           1 	(obj:0)
d12(4,26)                                           1 	(obj:0)
d12(4,28)                                           1 	(obj:0)
d12(4,30)                                           1 	(obj:0)
d21(3,7)                                            1 	(obj:0)
d21(4,15)                                           1 	(obj:0)
d21(4,16)                                           1 	(obj:0)
d21(4,17)                                           1 	(obj:0)
d21(4,18)                                           1 	(obj:0)
d21(4,19)                                           1 	(obj:0)
d21(4,20)                                           1 	(obj:0)
d21(4,23)                                           1 	(obj:0)
d21(4,24)                                           1 	(obj:0)
y2(4,16)                             658.348300040614 	(obj:0)
y2(4,18)                             658.348300040614 	(obj:0)
y2(4,20)                             658.348300040614 	(obj:0)
y2(4,22)                             658.348300040614 	(obj:0)
y2(4,24)                             658.348300040614 	(obj:0)
y2(4,26)                             658.348300040614 	(obj:0)
y2(4,28)                             658.348300040614 	(obj:0)
y2(4,30)                             658.348300040555 	(obj:0)
STE(1,1)                             7832.24989888903 	(obj:0)
STE(0,0)                                        11025 	(obj:0)
STE(1,2)                             9490.49979777785 	(obj:0)
STE(2,3)                             5292.00000000022 	(obj:0)
STE(2,4)                             6950.24989888903 	(obj:0)
STE(2,5)                             6950.24989888904 	(obj:0)
STE(2,6)                             8608.49979777785 	(obj:0)
STE(3,7)                             2751.75010111137 	(obj:0)
STE(3,8)                             4410.00000000019 	(obj:0)
STE(3,9)                             4410.00000000019 	(obj:0)
STE(3,10)                            6068.24989888903 	(obj:0)
STE(3,11)                            4410.00000000019 	(obj:0)
STE(3,12)                            6068.24989888904 	(obj:0)
STE(3,13)                            6068.24989888901 	(obj:0)
STE(3,14)                            7726.49979777783 	(obj:0)
STE(4,15)                            1093.50020222234 	(obj:0)
STE(4,16)                            2495.18098614996 	(obj:0)
STE(4,17)                            2751.75010111115 	(obj:0)
STE(4,18)                            4153.43088503877 	(obj:0)
STE(4,19)                            2751.75010111115 	(obj:0)
STE(4,20)                            4153.43088503877 	(obj:0)
STE(4,21)                                        4410 	(obj:0)
STE(4,22)                            5811.68078392762 	(obj:0)
STE(4,23)                            2751.75010111116 	(obj:0)
STE(4,24)                            4153.43088503877 	(obj:0)
STE(4,25)                                        4410 	(obj:0)
STE(4,26)                            5811.68078392762 	(obj:0)
STE(4,27)                            4409.99999999997 	(obj:0)
STE(4,28)                            5811.68078392759 	(obj:0)
STE(4,29)                            6068.24989888879 	(obj:0)
STE(4,30)                            7469.93068281635 	(obj:0)
y1(3,11)                             1492.42490899996 	(obj:0)
y1(3,13)                             1492.42490899996 	(obj:0)
y1(4,15)                             698.624909000131 	(obj:0)
y1(4,17)                             698.624909000131 	(obj:0)
y1(4,19)                             698.624909000131 	(obj:0)
y1(4,21)                             698.624909000131 	(obj:0)
y1(4,23)                             698.624909000131 	(obj:0)
y1(4,25)                             698.624909000132 	(obj:0)
y1(4,27)                             698.624909000131 	(obj:0)
y1(4,29)                             698.624909000131 	(obj:0)
AVE(1)                               3265.91696791192 	(obj:0)
AVE(2)                               3332.74178563731 	(obj:0)
AVE(3)                               3444.11697932125 	(obj:0)
WB(4)                                13.2726119580152 	(obj:0)
AVE(4)                               3399.56511093778 	(obj:0)
WG(1)                                3265.91696791192 	(obj:10)
WG(2)                                3332.74178563734 	(obj:10)
WG(3)                                3444.11697932125 	(obj:10)
WG(4)                                3386.29249897976 	(obj:10)
BG(1)                                1529.61041065941 	(obj:10)
BG(2)                                 863.55071334223 	(obj:10)
BG(3)                                752.175519658342 	(obj:10)
y1(1,1)                              2079.67509099987 	(obj:0)
y1(1,2)                              587.250181999932 	(obj:0)
y1(2,3)                              1492.42490899994 	(obj:0)
y1(2,5)                              1492.42490899994 	(obj:0)
y1(3,7)                              1492.42490899996 	(obj:0)
y1(3,9)                              1492.42490899996 	(obj:0)
